
n_res = 6;
rcap = [21, 20, 20, 19, 1339, 1342];
rtype = [1, 1, 1, 1, 2, 2];
n_tasks = 100;
modes =  [{1, 2, 3, 4, 5, 6}, {7, 8, 9, 10, 11, 12}, {13, 14, 15, 16, 17, 18}, {19, 20, 21, 22, 23, 24}, {25, 26, 27, 28, 29, 30}, {31, 32, 33, 34, 35, 36}, {37, 38, 39, 40, 41, 42}, {43, 44, 45, 46, 47, 48}, {49, 50, 51, 52, 53, 54}, {55, 56, 57, 58, 59, 60}, {61, 62, 63, 64, 65, 66}, {67, 68, 69, 70, 71, 72}, {73, 74, 75, 76, 77, 78}, {79, 80, 81, 82, 83, 84}, {85, 86, 87, 88, 89, 90}, {91, 92, 93, 94, 95, 96}, {97, 98, 99, 100, 101, 102}, {103, 104, 105, 106, 107, 108}, {109, 110, 111, 112, 113, 114}, {115, 116, 117, 118, 119, 120}, {121, 122, 123, 124, 125, 126}, {127, 128, 129, 130, 131, 132}, {133, 134, 135, 136, 137, 138}, {139, 140, 141, 142, 143, 144}, {145, 146, 147, 148, 149, 150}, {151, 152, 153, 154, 155, 156}, {157, 158, 159, 160, 161, 162}, {163, 164, 165, 166, 167, 168}, {169, 170, 171, 172, 173, 174}, {175, 176, 177, 178, 179, 180}, {181, 182, 183, 184, 185, 186}, {187, 188, 189, 190, 191, 192}, {193, 194, 195, 196, 197, 198}, {199, 200, 201, 202, 203, 204}, {205, 206, 207, 208, 209, 210}, {211, 212, 213, 214, 215, 216}, {217, 218, 219, 220, 221, 222}, {223, 224, 225, 226, 227, 228}, {229, 230, 231, 232, 233, 234}, {235, 236, 237, 238, 239, 240}, {241, 242, 243, 244, 245, 246}, {247, 248, 249, 250, 251, 252}, {253, 254, 255, 256, 257, 258}, {259, 260, 261, 262, 263, 264}, {265, 266, 267, 268, 269, 270}, {271, 272, 273, 274, 275, 276}, {277, 278, 279, 280, 281, 282}, {283, 284, 285, 286, 287, 288}, {289, 290, 291, 292, 293, 294}, {295, 296, 297, 298, 299, 300}, {301, 302, 303, 304, 305, 306}, {307, 308, 309, 310, 311, 312}, {313, 314, 315, 316, 317, 318}, {319, 320, 321, 322, 323, 324}, {325, 326, 327, 328, 329, 330}, {331, 332, 333, 334, 335, 336}, {337, 338, 339, 340, 341, 342}, {343, 344, 345, 346, 347, 348}, {349, 350, 351, 352, 353, 354}, {355, 356, 357, 358, 359, 360}, {361, 362, 363, 364, 365, 366}, {367, 368, 369, 370, 371, 372}, {373, 374, 375, 376, 377, 378}, {379, 380, 381, 382, 383, 384}, {385, 386, 387, 388, 389, 390}, {391, 392, 393, 394, 395, 396}, {397, 398, 399, 400, 401, 402}, {403, 404, 405, 406, 407, 408}, {409, 410, 411, 412, 413, 414}, {415, 416, 417, 418, 419, 420}, {421, 422, 423, 424, 425, 426}, {427, 428, 429, 430, 431, 432}, {433, 434, 435, 436, 437, 438}, {439, 440, 441, 442, 443, 444}, {445, 446, 447, 448, 449, 450}, {451, 452, 453, 454, 455, 456}, {457, 458, 459, 460, 461, 462}, {463, 464, 465, 466, 467, 468}, {469, 470, 471, 472, 473, 474}, {475, 476, 477, 478, 479, 480}, {481, 482, 483, 484, 485, 486}, {487, 488, 489, 490, 491, 492}, {493, 494, 495, 496, 497, 498}, {499, 500, 501, 502, 503, 504}, {505, 506, 507, 508, 509, 510}, {511, 512, 513, 514, 515, 516}, {517, 518, 519, 520, 521, 522}, {523, 524, 525, 526, 527, 528}, {529, 530, 531, 532, 533, 534}, {535, 536, 537, 538, 539, 540}, {541, 542, 543, 544, 545, 546}, {547, 548, 549, 550, 551, 552}, {553, 554, 555, 556, 557, 558}, {559, 560, 561, 562, 563, 564}, {565, 566, 567, 568, 569, 570}, {571, 572, 573, 574, 575, 576}, {577, 578, 579, 580, 581, 582}, {583, 584, 585, 586, 587, 588}, {589, 590, 591, 592, 593, 594}, {595, 596, 597, 598, 599, 600}];
succ =  [{27, 25, 23, 18, 16, 14, 13, 7}, {29, 27, 25, 23, 19, 18, 16, 14}, {26, 25, 18, 14, 12, 10}, {23, 21, 20, 18, 16, 12}, {30, 29, 27, 26, 25, 22, 15}, {39, 37, 33, 27, 23, 22, 18}, {37, 29, 22, 15}, {30, 18, 12}, {36, 33, 29, 23, 21, 19}, {37, 36, 35, 33, 29, 28, 27, 21}, {36, 33, 30, 29, 27, 26, 22}, {37, 36, 35, 33, 29, 28, 27}, {39, 37, 36, 35, 33, 32, 28, 26}, {39, 37, 36, 33, 28, 22}, {46, 36, 35, 33, 28, 21}, {40, 39, 36, 33, 28, 24}, {46, 36, 35, 33, 28, 27}, {46, 43, 38, 36, 32, 28}, {43, 39, 37, 35, 32, 31}, {46, 43, 38, 33, 32, 31}, {43, 39, 38, 32, 31}, {40, 24}, {43, 40, 34, 30}, {46, 43, 38, 31}, {46, 38, 34, 32}, {46, 41, 40, 38, 34}, {43, 41, 40, 34}, {31}, {54, 53, 50, 48, 47, 46, 45, 44, 42, 39}, {53, 48, 44, 41, 35}, {48, 41, 34}, {51, 50, 47, 45, 44, 41, 40}, {34}, {57, 54, 53, 51, 50, 49, 47, 45, 44, 42}, {60, 57, 54, 49, 47, 38}, {58, 57, 54, 53, 52, 51, 49, 47}, {58, 57, 53, 52, 49, 48}, {72, 65, 55, 52, 51, 50, 45}, {60, 57, 56, 52, 51, 49}, {72, 64, 59, 58, 54, 53, 48}, {68, 63, 61, 60, 57, 55, 49}, {72, 65, 64, 63, 59, 56, 52}, {72, 69, 68, 66, 65, 64, 63, 61, 59, 56}, {73, 72, 69, 68, 66, 65, 64, 63, 62, 61, 59}, {69, 68, 64, 63, 59, 58, 56}, {73, 72, 70, 68, 64, 61, 59, 57, 55}, {72, 61, 59, 56, 55}, {69, 68, 66, 63, 61, 56}, {80, 73, 72, 70, 69, 66, 65, 64, 59}, {69, 66, 63, 61, 56}, {80, 74, 70, 68, 67, 66, 64, 63}, {80, 74, 70, 69, 68, 66, 61}, {73, 67, 63, 60}, {81, 75, 74, 73, 71, 62}, {80, 78, 77, 75, 74, 69, 66}, {81, 74, 73, 71, 62}, {93, 81, 80, 77, 76, 74, 71, 67}, {74, 66, 61}, {93, 77, 76, 74, 71, 67}, {80, 75, 74, 69}, {93, 77, 71, 67}, {93, 80, 79, 78, 76, 70}, {93, 91, 83, 81, 78, 77, 76}, {93, 81, 78, 75, 71}, {78, 77, 76, 71}, {100, 93, 91, 90, 87, 79, 76}, {100, 82, 79, 78, 75}, {90, 87, 77, 76, 71}, {81, 76, 71}, {100, 99, 98, 92, 91, 90, 89, 87, 85, 84, 83}, {100, 92, 91, 86, 85, 84, 83, 82}, {100, 93, 91, 85, 84, 78}, {93, 90, 82, 77}, {100, 97, 91, 90, 79}, {99, 96, 92, 91, 90, 89, 87, 85, 84}, {98, 92, 85, 84, 82}, {100, 99, 96, 88, 86, 85, 84}, {99, 98, 97, 96, 90, 89, 87}, {99, 89, 86, 83}, {100, 90, 86, 83}, {99, 98, 96, 95, 90, 87}, {99, 97, 96, 89, 88}, {96, 95, 88}, {97, 95}, {95, 94}, {98, 94}, {88}, {94}, {95}, {94}, {94}, {95}, {94}, {}, {}, {}, {}, {}, {}, {}];
n_opt = 600;
dur = [1, 6, 8, 21, 22, 26, 1, 12, 16, 19, 25, 29, 4, 16, 17, 18, 21, 22, 3, 5, 9, 12, 14, 17, 3, 9, 12, 17, 19, 21, 4, 9, 15, 19, 20, 26, 5, 6, 11, 21, 25, 27, 12, 13, 19, 22, 23, 26, 6, 8, 13, 14, 20, 30, 8, 10, 13, 14, 18, 22, 3, 7, 9, 19, 25, 26, 12, 18, 24, 25, 28, 29, 2, 12, 13, 14, 20, 22, 6, 11, 20, 23, 25, 26, 5, 8, 12, 13, 15, 22, 1, 5, 6, 9, 19, 25, 4, 6, 7, 10, 14, 15, 2, 3, 6, 9, 12, 27, 2, 6, 11, 20, 21, 28, 1, 7, 8, 16, 23, 26, 3, 5, 7, 18, 21, 25, 1, 5, 13, 14, 19, 20, 15, 18, 19, 22, 25, 27, 1, 4, 6, 12, 17, 27, 4, 15, 16, 17, 18, 21, 7, 8, 9, 10, 12, 19, 2, 3, 8, 9, 13, 16, 5, 9, 14, 15, 25, 30, 11, 14, 16, 17, 26, 27, 8, 10, 11, 16, 25, 28, 4, 12, 16, 21, 25, 27, 6, 10, 16, 20, 25, 28, 4, 6, 7, 13, 20, 29, 10, 11, 16, 17, 21, 25, 1, 2, 7, 8, 9, 11, 6, 13, 14, 21, 25, 30, 1, 5, 6, 7, 10, 24, 4, 9, 13, 14, 15, 20, 10, 11, 13, 23, 26, 30, 1, 12, 13, 15, 22, 29, 8, 18, 19, 20, 21, 27, 1, 3, 16, 17, 18, 26, 1, 6, 12, 13, 17, 21, 6, 9, 17, 19, 24, 25, 5, 6, 11, 16, 21, 24, 7, 15, 16, 18, 19, 24, 1, 2, 13, 19, 21, 27, 6, 8, 12, 13, 27, 29, 1, 8, 13, 19, 25, 27, 4, 6, 9, 11, 25, 29, 3, 4, 12, 13, 18, 27, 1, 3, 6, 9, 10, 21, 7, 11, 12, 13, 14, 23, 7, 8, 10, 17, 19, 20, 4, 5, 11, 13, 16, 23, 5, 12, 16, 17, 19, 23, 3, 6, 19, 20, 22, 28, 3, 11, 21, 25, 28, 30, 6, 9, 10, 11, 18, 19, 2, 22, 24, 27, 29, 30, 4, 5, 10, 13, 19, 23, 3, 8, 10, 11, 15, 27, 1, 4, 5, 10, 24, 25, 1, 6, 11, 12, 15, 22, 4, 6, 8, 24, 28, 30, 3, 6, 10, 13, 17, 24, 12, 15, 16, 23, 28, 29, 8, 17, 18, 19, 24, 29, 3, 4, 6, 9, 26, 27, 6, 8, 18, 24, 27, 29, 19, 21, 22, 24, 28, 30, 3, 4, 13, 15, 16, 17, 10, 11, 12, 18, 20, 26, 6, 7, 9, 12, 25, 30, 2, 15, 16, 18, 22, 24, 2, 6, 8, 9, 15, 16, 11, 20, 22, 26, 28, 30, 10, 12, 21, 22, 24, 30, 2, 3, 15, 18, 28, 29, 9, 11, 14, 22, 29, 30, 1, 2, 6, 7, 12, 22, 5, 9, 13, 14, 25, 26, 5, 8, 9, 11, 15, 25, 3, 7, 20, 21, 22, 26, 2, 4, 8, 21, 22, 23, 10, 19, 23, 27, 28, 30, 5, 7, 13, 16, 20, 23, 1, 2, 3, 4, 5, 24, 5, 7, 11, 22, 23, 25, 5, 6, 8, 18, 20, 29, 2, 7, 10, 16, 26, 27, 1, 16, 18, 19, 20, 25, 4, 6, 15, 24, 25, 30, 7, 8, 9, 15, 26, 28, 6, 8, 10, 11, 20, 21, 6, 7, 10, 15, 16, 30, 1, 5, 8, 9, 28, 29, 10, 16, 20, 22, 23, 30, 12, 15, 16, 19, 26, 30, 9, 24, 25, 26, 27, 29];
rreq = [|3, 2, 2, 2, 2, 2, 4, 3, 3, 3, 3, 3, 4, 3, 3, 3, 2, 2, 4, 3, 3, 2, 2, 2, 2, 2, 2, 2, 2, 2, 4, 4, 4, 4, 3, 3, 4, 3, 3, 2, 2, 1, 2, 2, 2, 2, 1, 1, 5, 4, 4, 4, 4, 4, 3, 2, 2, 2, 2, 2, 4, 4, 4, 4, 4, 4, 4, 3, 3, 3, 3, 3, 5, 3, 3, 3, 1, 1, 4, 3, 3, 3, 3, 3, 3, 2, 2, 2, 2, 2, 2, 2, 2, 2, 2, 2, 3, 2, 2, 2, 2, 2, 4, 3, 3, 2, 2, 2, 2, 2, 2, 2, 2, 2, 1, 1, 1, 1, 1, 1, 1, 1, 1, 1, 1, 1, 4, 4, 4, 4, 4, 4, 4, 4, 3, 3, 3, 2, 2, 2, 2, 2, 2, 2, 4, 4, 3, 2, 1, 1, 2, 2, 2, 2, 2, 2, 3, 3, 3, 2, 2, 2, 5, 4, 3, 3, 3, 2, 5, 3, 3, 2, 2, 1, 3, 3, 3, 3, 3, 3, 5, 3, 3, 2, 1, 1, 2, 1, 1, 1, 1, 1, 3, 3, 3, 3, 3, 3, 4, 4, 3, 2, 2, 1, 3, 3, 3, 2, 2, 2, 1, 1, 1, 1, 1, 1, 2, 2, 2, 1, 1, 1, 2, 2, 2, 2, 2, 2, 1, 1, 1, 1, 1, 1, 5, 4, 4, 4, 3, 3, 4, 3, 3, 2, 1, 1, 4, 4, 4, 4, 4, 4, 2, 2, 2, 1, 1, 1, 1, 1, 1, 1, 1, 1, 2, 2, 2, 2, 2, 2, 2, 2, 2, 2, 2, 2, 4, 3, 3, 3, 2, 2, 3, 3, 3, 3, 3, 3, 5, 5, 5, 5, 5, 5, 4, 4, 4, 4, 3, 3, 2, 2, 2, 2, 2, 2, 2, 2, 2, 2, 2, 2, 4, 3, 2, 2, 1, 1, 2, 2, 2, 1, 1, 1, 5, 4, 4, 4, 4, 4, 3, 3, 3, 3, 3, 3, 2, 2, 2, 1, 1, 1, 4, 3, 3, 2, 2, 2, 3, 3, 3, 3, 2, 2, 3, 2, 2, 2, 1, 1, 4, 3, 3, 2, 1, 1, 5, 4, 4, 4, 3, 3, 4, 4, 4, 4, 4, 4, 4, 3, 3, 2, 2, 1, 4, 3, 3, 2, 2, 2, 2, 2, 2, 2, 2, 2, 5, 5, 5, 5, 5, 5, 5, 4, 4, 3, 3, 3, 4, 3, 3, 3, 3, 3, 3, 3, 3, 3, 3, 3, 2, 2, 2, 2, 2, 2, 4, 4, 3, 2, 1, 1, 2, 1, 1, 1, 1, 1, 1, 1, 1, 1, 1, 1, 4, 4, 4, 4, 4, 4, 1, 1, 1, 1, 1, 1, 3, 3, 2, 2, 2, 1, 5, 5, 5, 5, 5, 5, 2, 2, 2, 2, 2, 2, 4, 3, 3, 3, 3, 3, 5, 4, 3, 3, 1, 1, 2, 2, 2, 2, 2, 2, 5, 5, 5, 5, 5, 5, 4, 4, 4, 4, 4, 4, 4, 3, 3, 2, 2, 1, 4, 4, 4, 4, 3, 3, 3, 3, 3, 3, 2, 2, 5, 4, 4, 4, 3, 3, 3, 3, 3, 2, 1, 1, 4, 3, 3, 3, 3, 3, 4, 4, 4, 4, 4, 4, 4, 3, 3, 3, 2, 2, 3, 3, 3, 2, 2, 2, 3, 3, 3, 3, 3, 3, 3, 3, 3, 3, 3, 3, 2, 2, 2, 1, 1, 1, 1, 1, 1, 1, 1, 1, 5, 3, 3, 3, 1, 1, 3, 3, 3, 3, 2, 2, 2, 2, 2, 1, 1, 1
 |3, 2, 2, 2, 1, 1, 5, 4, 4, 4, 3, 3, 2, 2, 2, 2, 2, 2, 4, 4, 4, 4, 4, 4, 4, 3, 3, 2, 2, 2, 3, 3, 3, 3, 3, 3, 5, 4, 4, 4, 4, 4, 3, 2, 2, 1, 1, 1, 3, 3, 3, 3, 3, 3, 4, 3, 3, 3, 2, 2, 1, 1, 1, 1, 1, 1, 3, 3, 3, 3, 3, 3, 4, 4, 4, 4, 4, 4, 5, 5, 5, 5, 5, 5, 4, 3, 3, 2, 2, 1, 5, 4, 4, 4, 3, 3, 2, 2, 2, 1, 1, 1, 3, 3, 3, 2, 2, 1, 4, 3, 3, 2, 2, 2, 3, 3, 2, 2, 1, 1, 3, 3, 3, 3, 2, 2, 4, 4, 3, 3, 2, 2, 1, 1, 1, 1, 1, 1, 2, 2, 2, 2, 2, 2, 5, 4, 4, 3, 3, 3, 5, 4, 4, 4, 3, 3, 5, 5, 5, 5, 5, 5, 4, 4, 4, 4, 3, 3, 4, 3, 3, 3, 3, 3, 5, 5, 5, 5, 5, 5, 3, 2, 2, 1, 1, 1, 3, 3, 3, 3, 3, 3, 2, 2, 2, 1, 1, 1, 1, 1, 1, 1, 1, 1, 3, 3, 3, 3, 3, 3, 5, 4, 3, 3, 1, 1, 5, 4, 3, 3, 2, 1, 1, 1, 1, 1, 1, 1, 3, 3, 3, 3, 3, 3, 3, 2, 2, 2, 2, 2, 4, 3, 3, 3, 2, 2, 3, 3, 3, 3, 3, 3, 3, 3, 3, 2, 1, 1, 4, 4, 4, 3, 3, 2, 4, 4, 4, 4, 4, 4, 2, 1, 1, 1, 1, 1, 5, 3, 3, 3, 1, 1, 4, 4, 3, 3, 2, 2, 2, 2, 2, 2, 2, 2, 2, 2, 2, 2, 1, 1, 4, 4, 4, 4, 4, 4, 2, 2, 2, 2, 2, 2, 4, 4, 4, 4, 4, 4, 4, 4, 4, 3, 3, 3, 1, 1, 1, 1, 1, 1, 4, 4, 4, 4, 4, 4, 3, 2, 2, 2, 2, 2, 4, 4, 4, 4, 4, 4, 3, 3, 3, 3, 3, 3, 3, 3, 3, 3, 2, 2, 2, 2, 2, 2, 1, 1, 5, 4, 4, 4, 4, 4, 4, 4, 4, 4, 4, 4, 4, 4, 4, 3, 3, 3, 3, 3, 3, 3, 3, 3, 2, 1, 1, 1, 1, 1, 4, 4, 4, 4, 4, 4, 4, 4, 4, 4, 4, 4, 5, 5, 5, 5, 5, 5, 3, 3, 3, 3, 3, 3, 1, 1, 1, 1, 1, 1, 5, 4, 4, 3, 2, 2, 2, 2, 2, 2, 1, 1, 4, 3, 3, 3, 3, 3, 3, 3, 3, 3, 3, 3, 2, 2, 2, 1, 1, 1, 3, 3, 3, 3, 3, 3, 5, 5, 5, 5, 5, 5, 2, 1, 1, 1, 1, 1, 4, 4, 4, 4, 4, 4, 5, 4, 3, 3, 2, 2, 3, 3, 3, 2, 2, 2, 1, 1, 1, 1, 1, 1, 4, 3, 3, 3, 3, 3, 4, 4, 4, 3, 2, 2, 2, 1, 1, 1, 1, 1, 5, 4, 4, 3, 3, 3, 2, 2, 2, 2, 2, 2, 4, 4, 4, 4, 4, 4, 3, 2, 2, 2, 1, 1, 4, 3, 3, 3, 2, 1, 4, 3, 3, 3, 3, 3, 5, 3, 3, 2, 2, 1, 2, 2, 2, 2, 1, 1, 5, 4, 4, 3, 3, 2, 4, 3, 3, 3, 3, 3, 2, 2, 2, 2, 2, 2, 5, 4, 3, 2, 2, 1, 5, 4, 4, 4, 4, 4, 3, 3, 3, 3, 3, 3
 |4, 3, 3, 2, 1, 1, 5, 4, 3, 2, 1, 1, 2, 2, 2, 2, 2, 2, 2, 1, 1, 1, 1, 1, 4, 3, 2, 2, 1, 1, 4, 4, 3, 2, 2, 1, 2, 2, 2, 1, 1, 1, 1, 1, 1, 1, 1, 1, 4, 3, 2, 2, 2, 1, 5, 4, 4, 3, 3, 3, 4, 4, 4, 4, 4, 4, 3, 3, 3, 2, 1, 1, 5, 4, 4, 3, 2, 2, 5, 4, 4, 4, 3, 3, 4, 4, 4, 4, 4, 4, 3, 3, 3, 2, 1, 1, 4, 4, 4, 4, 4, 4, 2, 2, 2, 2, 2, 2, 2, 2, 2, 1, 1, 1, 5, 5, 5, 5, 5, 5, 2, 2, 2, 1, 1, 1, 3, 3, 3, 2, 1, 1, 1, 1, 1, 1, 1, 1, 4, 3, 3, 3, 3, 3, 5, 5, 5, 5, 5, 5, 3, 3, 3, 2, 1, 1, 5, 4, 4, 3, 3, 2, 4, 3, 3, 2, 2, 1, 4, 4, 4, 4, 4, 4, 4, 3, 3, 2, 1, 1, 4, 4, 4, 3, 3, 3, 3, 2, 2, 2, 2, 2, 2, 1, 1, 1, 1, 1, 4, 4, 4, 4, 4, 4, 3, 3, 3, 2, 2, 2, 5, 3, 3, 3, 2, 1, 3, 2, 2, 2, 1, 1, 4, 3, 3, 3, 3, 3, 2, 1, 1, 1, 1, 1, 3, 3, 3, 3, 3, 3, 5, 5, 5, 5, 5, 5, 2, 2, 2, 2, 2, 2, 3, 3, 2, 2, 1, 1, 4, 4, 4, 4, 4, 4, 4, 4, 4, 4, 4, 4, 4, 3, 3, 3, 3, 3, 4, 4, 4, 4, 4, 4, 5, 5, 5, 5, 5, 5, 4, 3, 3, 3, 1, 1, 2, 2, 2, 2, 2, 2, 3, 2, 2, 1, 1, 1, 2, 2, 2, 2, 1, 1, 3, 3, 3, 3, 3, 3, 4, 3, 3, 3, 3, 3, 4, 4, 3, 3, 2, 2, 3, 3, 2, 2, 1, 1, 5, 4, 3, 3, 2, 2, 2, 2, 2, 2, 2, 2, 4, 4, 4, 4, 3, 3, 5, 4, 4, 4, 4, 4, 5, 4, 4, 4, 4, 4, 3, 3, 3, 3, 3, 3, 5, 4, 4, 4, 3, 3, 2, 1, 1, 1, 1, 1, 2, 1, 1, 1, 1, 1, 4, 4, 4, 4, 4, 4, 5, 4, 3, 2, 2, 1, 3, 3, 3, 3, 2, 2, 3, 3, 2, 2, 2, 1, 5, 4, 4, 4, 4, 4, 4, 3, 2, 2, 1, 1, 4, 3, 2, 2, 2, 1, 2, 2, 2, 2, 2, 2, 4, 4, 4, 4, 4, 4, 4, 4, 4, 4, 4, 4, 3, 3, 3, 2, 2, 1, 3, 3, 3, 3, 2, 2, 5, 4, 4, 4, 3, 3, 3, 2, 2, 1, 1, 1, 4, 3, 3, 3, 2, 2, 3, 3, 2, 2, 2, 1, 3, 2, 2, 2, 1, 1, 4, 4, 4, 4, 4, 4, 3, 3, 3, 2, 2, 2, 3, 2, 2, 1, 1, 1, 5, 4, 3, 3, 1, 1, 3, 3, 3, 3, 3, 3, 2, 2, 2, 1, 1, 1, 4, 4, 4, 4, 3, 3, 5, 4, 4, 4, 3, 3, 3, 3, 2, 2, 2, 1, 4, 4, 3, 3, 2, 2, 1, 1, 1, 1, 1, 1, 4, 3, 3, 2, 1, 1, 3, 3, 2, 2, 2, 1, 2, 2, 2, 1, 1, 1, 4, 3, 3, 3, 2, 2, 4, 3, 3, 3, 3, 3, 5, 4, 4, 3, 2, 2, 3, 3, 3, 3, 2, 2
 |1, 1, 1, 1, 1, 1, 4, 4, 3, 3, 2, 2, 2, 1, 1, 1, 1, 1, 3, 3, 3, 3, 3, 3, 1, 1, 1, 1, 1, 1, 4, 4, 4, 3, 2, 2, 4, 3, 3, 2, 2, 2, 1, 1, 1, 1, 1, 1, 5, 4, 3, 2, 2, 1, 2, 1, 1, 1, 1, 1, 2, 2, 2, 2, 2, 2, 4, 4, 4, 4, 3, 3, 3, 3, 2, 2, 1, 1, 3, 3, 3, 2, 2, 2, 2, 2, 2, 2, 2, 2, 3, 3, 3, 3, 3, 3, 3, 3, 3, 2, 2, 2, 1, 1, 1, 1, 1, 1, 5, 4, 4, 3, 3, 3, 3, 3, 3, 3, 2, 2, 3, 2, 2, 1, 1, 1, 4, 4, 4, 4, 4, 4, 2, 2, 2, 2, 2, 2, 2, 2, 2, 1, 1, 1, 2, 2, 2, 2, 2, 2, 4, 4, 3, 3, 2, 1, 4, 4, 3, 3, 3, 2, 4, 4, 4, 4, 3, 3, 4, 4, 4, 4, 4, 4, 4, 4, 3, 3, 1, 1, 3, 3, 3, 3, 2, 2, 3, 3, 3, 3, 2, 2, 3, 2, 2, 2, 1, 1, 5, 4, 3, 2, 1, 1, 3, 2, 2, 2, 1, 1, 4, 4, 3, 3, 2, 2, 3, 2, 2, 2, 1, 1, 4, 3, 3, 2, 2, 2, 5, 4, 4, 4, 4, 4, 4, 3, 3, 3, 3, 3, 4, 3, 2, 2, 2, 1, 5, 5, 5, 5, 5, 5, 3, 3, 3, 2, 2, 2, 3, 3, 3, 2, 2, 2, 4, 3, 3, 3, 1, 1, 3, 3, 2, 2, 2, 1, 4, 3, 3, 3, 2, 2, 1, 1, 1, 1, 1, 1, 1, 1, 1, 1, 1, 1, 5, 4, 4, 3, 2, 2, 3, 2, 2, 1, 1, 1, 5, 3, 3, 3, 1, 1, 1, 1, 1, 1, 1, 1, 4, 3, 3, 2, 2, 2, 4, 4, 4, 4, 3, 3, 5, 4, 4, 4, 4, 4, 2, 1, 1, 1, 1, 1, 2, 2, 2, 1, 1, 1, 4, 3, 3, 2, 1, 1, 3, 2, 2, 1, 1, 1, 3, 3, 3, 3, 3, 3, 4, 4, 4, 3, 3, 3, 2, 1, 1, 1, 1, 1, 4, 4, 4, 4, 3, 3, 5, 3, 3, 3, 2, 1, 4, 4, 4, 4, 4, 4, 3, 3, 3, 3, 3, 3, 5, 4, 4, 3, 3, 2, 3, 3, 3, 2, 1, 1, 5, 4, 4, 4, 3, 3, 4, 3, 3, 2, 2, 2, 2, 2, 2, 2, 2, 2, 4, 4, 4, 4, 4, 4, 2, 1, 1, 1, 1, 1, 5, 3, 3, 2, 1, 1, 3, 2, 2, 1, 1, 1, 2, 2, 2, 2, 2, 2, 4, 3, 3, 3, 3, 3, 2, 2, 2, 2, 2, 2, 4, 3, 3, 2, 2, 1, 2, 1, 1, 1, 1, 1, 3, 3, 3, 2, 1, 1, 4, 3, 3, 3, 2, 2, 3, 2, 2, 2, 2, 2, 4, 4, 4, 4, 4, 4, 4, 4, 4, 3, 2, 2, 5, 4, 4, 3, 3, 3, 3, 3, 3, 2, 2, 2, 4, 3, 3, 2, 1, 1, 2, 2, 2, 2, 1, 1, 3, 3, 3, 2, 1, 1, 4, 4, 4, 3, 3, 3, 1, 1, 1, 1, 1, 1, 4, 4, 4, 4, 4, 4, 2, 2, 2, 2, 1, 1, 1, 1, 1, 1, 1, 1, 3, 3, 2, 2, 2, 1, 4, 3, 3, 2, 1, 1, 4, 3, 3, 3, 1, 1, 5, 4, 3, 2, 1, 1
 |10, 9, 9, 7, 6, 6, 16, 12, 9, 9, 7, 3, 10, 9, 9, 9, 8, 8, 24, 20, 16, 14, 8, 6, 20, 20, 19, 17, 14, 14, 19, 16, 16, 13, 12, 10, 17, 16, 15, 15, 14, 14, 23, 17, 14, 9, 7, 6, 22, 22, 22, 22, 22, 22, 25, 24, 22, 21, 20, 19, 15, 15, 15, 15, 15, 15, 22, 19, 16, 14, 9, 6, 28, 26, 23, 22, 20, 18, 22, 21, 17, 12, 7, 3, 14, 10, 10, 8, 4, 3, 29, 28, 26, 26, 24, 23, 23, 21, 20, 19, 18, 18, 17, 15, 15, 14, 13, 12, 25, 23, 21, 20, 19, 19, 22, 22, 20, 20, 18, 18, 27, 23, 20, 15, 12, 9, 17, 16, 13, 12, 8, 8, 21, 17, 13, 11, 7, 4, 14, 14, 13, 12, 11, 11, 24, 23, 21, 21, 18, 18, 18, 15, 12, 10, 7, 4, 28, 20, 18, 16, 9, 7, 20, 18, 13, 9, 7, 6, 25, 23, 22, 20, 19, 19, 20, 17, 16, 10, 7, 5, 17, 16, 15, 15, 14, 12, 23, 22, 22, 21, 21, 21, 19, 19, 15, 13, 13, 10, 19, 17, 17, 14, 14, 13, 29, 25, 24, 23, 19, 19, 30, 22, 20, 14, 8, 7, 25, 24, 23, 20, 19, 18, 26, 22, 20, 19, 18, 14, 21, 20, 19, 19, 17, 17, 27, 26, 25, 25, 23, 23, 12, 10, 6, 5, 3, 2, 21, 18, 15, 14, 9, 9, 29, 28, 28, 27, 26, 25, 19, 16, 16, 13, 11, 10, 19, 16, 13, 7, 7, 3, 19, 18, 14, 12, 12, 9, 9, 9, 9, 9, 9, 9, 17, 16, 15, 13, 10, 7, 28, 25, 25, 21, 19, 19, 27, 23, 23, 20, 18, 18, 27, 26, 22, 19, 17, 15, 2, 2, 2, 2, 1, 1, 2, 1, 1, 1, 1, 1, 29, 25, 18, 14, 8, 3, 15, 14, 13, 12, 9, 9, 22, 20, 19, 16, 13, 13, 16, 14, 11, 11, 9, 7, 5, 4, 4, 4, 3, 3, 22, 21, 20, 19, 18, 18, 17, 16, 13, 10, 8, 6, 15, 14, 13, 13, 11, 11, 8, 7, 5, 5, 4, 2, 28, 27, 25, 24, 24, 23, 28, 26, 25, 24, 23, 23, 29, 23, 17, 13, 11, 9, 18, 17, 17, 16, 16, 16, 2, 2, 2, 2, 2, 2, 25, 24, 22, 21, 20, 20, 20, 19, 18, 15, 12, 9, 29, 29, 29, 28, 28, 28, 21, 19, 19, 18, 17, 15, 15, 13, 12, 9, 4, 2, 17, 16, 16, 15, 13, 13, 29, 27, 23, 20, 17, 14, 5, 4, 4, 3, 3, 2, 9, 8, 8, 6, 5, 5, 5, 5, 5, 5, 5, 5, 26, 21, 19, 16, 12, 6, 23, 19, 17, 15, 15, 11, 8, 7, 5, 5, 3, 1, 28, 26, 25, 23, 21, 20, 19, 19, 19, 19, 19, 19, 14, 14, 10, 9, 6, 5, 9, 9, 9, 9, 8, 8, 23, 22, 21, 21, 21, 20, 2, 2, 2, 2, 2, 2, 21, 21, 20, 18, 18, 16, 16, 15, 15, 14, 14, 13, 27, 24, 23, 17, 15, 14, 24, 18, 16, 11, 8, 5, 4, 3, 2, 2, 1, 1, 24, 23, 21, 20, 17, 14, 20, 19, 18, 16, 16, 15, 28, 27, 26, 24, 23, 23, 12, 11, 11, 11, 11, 11, 11, 10, 9, 9, 7, 7, 13, 12, 12, 11, 10, 9, 25, 24, 23, 23, 22, 22, 20, 15, 12, 12, 6, 6, 24, 22, 22, 20, 19, 19
 |16, 14, 13, 13, 13, 12, 18, 16, 11, 10, 5, 4, 24, 22, 21, 20, 18, 17, 15, 13, 11, 9, 8, 6, 18, 16, 15, 11, 8, 4, 25, 23, 22, 19, 17, 15, 18, 17, 17, 17, 17, 17, 14, 13, 11, 11, 9, 9, 7, 7, 7, 6, 5, 6, 17, 16, 14, 13, 12, 12, 16, 15, 14, 13, 12, 11, 16, 14, 13, 13, 12, 11, 19, 16, 14, 14, 12, 10, 30, 29, 28, 27, 27, 26, 18, 16, 12, 11, 9, 6, 21, 19, 18, 13, 11, 6, 20, 18, 12, 12, 8, 5, 19, 19, 13, 13, 8, 6, 27, 23, 19, 19, 13, 12, 24, 19, 18, 16, 11, 10, 5, 5, 5, 4, 3, 3, 11, 11, 10, 10, 10, 9, 10, 9, 9, 8, 8, 8, 17, 15, 12, 9, 4, 3, 12, 12, 9, 9, 7, 6, 27, 26, 21, 20, 17, 11, 21, 21, 21, 20, 20, 20, 20, 20, 20, 20, 20, 20, 24, 23, 22, 21, 18, 18, 19, 15, 14, 11, 6, 5, 24, 22, 21, 20, 18, 16, 25, 24, 23, 22, 22, 21, 21, 19, 19, 18, 16, 14, 28, 27, 26, 23, 23, 20, 11, 11, 11, 11, 11, 10, 29, 26, 26, 24, 22, 20, 23, 23, 21, 19, 17, 16, 21, 20, 20, 20, 20, 20, 26, 24, 20, 15, 13, 7, 23, 23, 21, 20, 20, 18, 28, 25, 25, 21, 18, 16, 18, 18, 17, 17, 16, 15, 16, 15, 15, 15, 14, 14, 18, 16, 15, 15, 14, 13, 16, 15, 12, 11, 11, 8, 11, 10, 9, 9, 8, 6, 13, 11, 10, 9, 6, 5, 23, 17, 14, 11, 9, 7, 20, 18, 15, 14, 12, 9, 29, 20, 18, 13, 8, 6, 22, 21, 18, 16, 15, 12, 16, 14, 13, 12, 12, 10, 15, 12, 10, 9, 6, 5, 21, 18, 17, 13, 10, 7, 14, 13, 12, 12, 11, 10, 23, 18, 18, 16, 11, 10, 26, 21, 15, 12, 5, 3, 24, 23, 21, 20, 19, 18, 24, 21, 20, 19, 17, 15, 14, 12, 12, 9, 9, 7, 2, 2, 2, 2, 2, 1, 29, 24, 18, 16, 10, 7, 25, 22, 19, 18, 16, 14, 23, 22, 21, 20, 19, 19, 26, 26, 23, 19, 17, 16, 28, 26, 25, 24, 23, 22, 14, 13, 13, 11, 10, 10, 23, 23, 19, 18, 17, 14, 29, 29, 29, 29, 29, 29, 18, 16, 15, 13, 12, 11, 12, 9, 7, 5, 4, 2, 24, 18, 18, 11, 10, 5, 17, 15, 13, 7, 4, 2, 15, 15, 13, 12, 11, 11, 12, 10, 7, 6, 4, 3, 16, 16, 15, 16, 16, 16, 7, 6, 6, 5, 6, 6, 18, 18, 18, 18, 18, 18, 27, 26, 23, 21, 20, 18, 28, 24, 20, 20, 15, 13, 28, 23, 19, 13, 9, 5, 2, 2, 1, 2, 2, 1, 26, 21, 20, 14, 14, 9, 20, 20, 18, 16, 15, 13, 28, 24, 23, 21, 16, 14, 11, 9, 8, 5, 4, 3, 17, 16, 15, 15, 13, 11, 26, 24, 23, 22, 19, 18, 18, 18, 18, 18, 17, 17, 28, 28, 27, 27, 26, 25, 5, 5, 4, 4, 4, 3, 28, 28, 26, 26, 25, 23, 16, 15, 12, 10, 9, 7, 22, 21, 19, 18, 16, 15, 23, 22, 20, 19, 18, 18, 22, 20, 19, 18, 18, 16, 18, 16, 16, 13, 13, 10, 15, 15, 14, 12, 11, 10, 6, 5, 4, 3, 3, 2, 24, 19, 19, 16, 11, 8|];